NAME          
ROWS
 N  OBJ
 L  c1
 L  c2
COLUMNS
    MARKER    'MARKER'                 'INTORG'
    x[1]      c1        999
    x[1]      c2        998
    x[1]      OBJ       -908
    x[2]      c1        319
    x[2]      c2        755
    x[2]      OBJ       -910
    x[3]      c1        999
    x[3]      c2        352
    x[3]      OBJ       -808
    x[4]      c1        329
    x[4]      c2        584
    x[4]      OBJ       -510
    x[5]      c1        322
    x[5]      c2        237
    x[5]      OBJ       -127
    x[6]      c1        666
    x[6]      c2        227
    x[6]      OBJ       -986
    x[7]      c1        342
    x[7]      c2        54
    x[7]      OBJ       -436
    x[8]      c1        981
    x[8]      c2        893
    x[8]      OBJ       -54
    x[9]      c1        413
    x[9]      c2        951
    x[9]      OBJ       -278
    x[10]     c1        736
    x[10]     c2        86
    x[10]     OBJ       -585
RHS
    rhs       c1        3053
    rhs       c2        2568
RANGES
BOUNDS
 LO bounds    x[1]      0
 PL bounds    x[1]
 LO bounds    x[2]      0
 PL bounds    x[2]
 LO bounds    x[3]      0
 PL bounds    x[3]
 LO bounds    x[4]      0
 PL bounds    x[4]
 LO bounds    x[5]      0
 PL bounds    x[5]
 LO bounds    x[6]      0
 PL bounds    x[6]
 LO bounds    x[7]      0
 PL bounds    x[7]
 LO bounds    x[8]      0
 PL bounds    x[8]
 LO bounds    x[9]      0
 PL bounds    x[9]
 LO bounds    x[10]     0
 PL bounds    x[10]
ENDATA
